X	Y
46	12
51	4
52	30
80	70
18	90
59	39
23	59
77	48
82	30
18	82
11	41
7	9
88	33
23	88
0	76
85	34
17	46
52	10
13	45
19	85
86	77
54	6
83	32
15	10
53	5
14	42
13	10
57	32
20	85
65	46
61	42
87	52
79	51
25	91
89	34
26	100
0	88
64	43
55	10
23	86
8	18
0	74
20	44
56	7
14	10
88	40
96	38
59	31
22	87
59	36
24	83
83	37
53	5
0	37
84	78
27	93
61	12
69	43
54	9
20	98
18	50
25	84
31	69
58	36
0	11
61	36
18	49
57	8
0	49
56	8
62	45
83	32
53	10
82	53
21	85
64	41
80	50
16	10